POSCAR.pdb
1.000 
  14.739000320434570   0.000000000000000   0.000000000000000
  -7.369500160217282  12.764348703883321   0.000000000000000
   0.000000000000001   0.000000000000002  16.211999893188477
Si  O   
81  162 
Cartesian
     2.2850000000000001421      0.0000000000000000000      1.8009999999999999343
    -1.1419999999999999041      1.9779999999999999805      3.6030000000000002025
     1.3140000000000000568      2.2759999999999998010      5.4039999999999999147
     7.1980000000000003979      0.0000000000000000000      1.8009999999999999343
     3.7709999999999999076      1.9779999999999999805      3.6030000000000002025
     6.2270000000000003126      2.2759999999999998010      5.4039999999999999147
    12.1110000000000006537      0.0000000000000000000      1.8009999999999999343
     8.6839999999999992752      1.9779999999999999805      3.6030000000000002025
    11.1400000000000005684      2.2759999999999998010      5.4039999999999999147
    -0.1710000000000000131      4.2549999999999998934      1.8009999999999999343
    -3.5979999999999998650      6.2329999999999996518      3.6030000000000002025
    -1.1430000000000000160      6.5309999999999996945      5.4039999999999999147
     4.7419999999999999929      4.2549999999999998934      1.8009999999999999343
     1.3149999999999999467      6.2329999999999996518      3.6030000000000002025
     3.7700000000000000178      6.5309999999999996945      5.4039999999999999147
     9.6549999999999993605      4.2549999999999998934      1.8009999999999999343
     6.2279999999999997584      6.2329999999999996518      3.6030000000000002025
     8.6829999999999998295      6.5309999999999996945      5.4039999999999999147
    -2.6280000000000001137      8.5099999999999997868      1.8009999999999999343
    -6.0549999999999997158     10.4879999999999995453      3.6030000000000002025
    -3.5990000000000001990     10.7859999999999995879      5.4039999999999999147
     2.2850000000000001421      8.5099999999999997868      1.8009999999999999343
    -1.1419999999999999041     10.4879999999999995453      3.6030000000000002025
     1.3140000000000000568     10.7859999999999995879      5.4039999999999999147
     7.1980000000000003979      8.5099999999999997868      1.8009999999999999343
     3.7709999999999999076     10.4879999999999995453      3.6030000000000002025
     6.2270000000000003126     10.7859999999999995879      5.4039999999999999147
     2.2850000000000001421      0.0000000000000000000      7.2050000000000000711
    -1.1419999999999999041      1.9779999999999999805      9.0069999999999996732
     1.3140000000000000568      2.2759999999999998010     10.8079999999999998295
     7.1980000000000003979      0.0000000000000000000      7.2050000000000000711
     3.7709999999999999076      1.9779999999999999805      9.0069999999999996732
     6.2270000000000003126      2.2759999999999998010     10.8079999999999998295
    12.1110000000000006537      0.0000000000000000000      7.2050000000000000711
     8.6839999999999992752      1.9779999999999999805      9.0069999999999996732
    11.1400000000000005684      2.2759999999999998010     10.8079999999999998295
    -0.1710000000000000131      4.2549999999999998934      7.2050000000000000711
    -3.5979999999999998650      6.2329999999999996518      9.0069999999999996732
    -1.1430000000000000160      6.5309999999999996945     10.8079999999999998295
     4.7419999999999999929      4.2549999999999998934      7.2050000000000000711
     1.3149999999999999467      6.2329999999999996518      9.0069999999999996732
     3.7700000000000000178      6.5309999999999996945     10.8079999999999998295
     9.6549999999999993605      4.2549999999999998934      7.2050000000000000711
     6.2279999999999997584      6.2329999999999996518      9.0069999999999996732
     8.6829999999999998295      6.5309999999999996945     10.8079999999999998295
    -2.6280000000000001137      8.5099999999999997868      7.2050000000000000711
    -6.0549999999999997158     10.4879999999999995453      9.0069999999999996732
    -3.5990000000000001990     10.7859999999999995879     10.8079999999999998295
     2.2850000000000001421      8.5099999999999997868      7.2050000000000000711
    -1.1419999999999999041     10.4879999999999995453      9.0069999999999996732
     1.3140000000000000568     10.7859999999999995879     10.8079999999999998295
     7.1980000000000003979      8.5099999999999997868      7.2050000000000000711
     3.7709999999999999076     10.4879999999999995453      9.0069999999999996732
     6.2270000000000003126     10.7859999999999995879     10.8079999999999998295
     2.2850000000000001421      0.0000000000000000000     12.6089999999999999858
    -1.1419999999999999041      1.9779999999999999805     14.4109999999999995879
     1.3140000000000000568      2.2759999999999998010     16.2119999999999997442
     7.1980000000000003979      0.0000000000000000000     12.6089999999999999858
     3.7709999999999999076      1.9779999999999999805     14.4109999999999995879
     6.2270000000000003126      2.2759999999999998010     16.2119999999999997442
    12.1110000000000006537      0.0000000000000000000     12.6089999999999999858
     8.6839999999999992752      1.9779999999999999805     14.4109999999999995879
    11.1400000000000005684      2.2759999999999998010     16.2119999999999997442
    -0.1710000000000000131      4.2549999999999998934     12.6089999999999999858
    -3.5979999999999998650      6.2329999999999996518     14.4109999999999995879
    -1.1430000000000000160      6.5309999999999996945     16.2119999999999997442
     4.7419999999999999929      4.2549999999999998934     12.6089999999999999858
     1.3149999999999999467      6.2329999999999996518     14.4109999999999995879
     3.7700000000000000178      6.5309999999999996945     16.2119999999999997442
     9.6549999999999993605      4.2549999999999998934     12.6089999999999999858
     6.2279999999999997584      6.2329999999999996518     14.4109999999999995879
     8.6829999999999998295      6.5309999999999996945     16.2119999999999997442
    -2.6280000000000001137      8.5099999999999997868     12.6089999999999999858
    -6.0549999999999997158     10.4879999999999995453     14.4109999999999995879
    -3.5990000000000001990     10.7859999999999995879     16.2119999999999997442
     2.2850000000000001421      8.5099999999999997868     12.6089999999999999858
    -1.1419999999999999041     10.4879999999999995453     14.4109999999999995879
     1.3140000000000000568     10.7859999999999995879     16.2119999999999997442
     7.1980000000000003979      8.5099999999999997868     12.6089999999999999858
     3.7709999999999999076     10.4879999999999995453     14.4109999999999995879
     6.2270000000000003126     10.7859999999999995879     16.2119999999999997442
     1.3660000000000001030      1.1830000000000000515      1.1999999999999999556
     3.2059999999999999609      0.5909999999999999698      3.0009999999999998899
     2.7980000000000000426      2.4809999999999998721      4.8019999999999996021
     0.3410000000000000253      1.7740000000000000213      4.2039999999999997371
    -1.0909999999999999698      3.0720000000000000639      2.4030000000000000249
     0.7489999999999999991      3.6629999999999998117      0.6019999999999999796
     6.2789999999999999147      1.1830000000000000515      1.1999999999999999556
     8.1189999999999997726      0.5909999999999999698      3.0009999999999998899
     7.7110000000000002984      2.4809999999999998721      4.8019999999999996021
     5.2539999999999995595      1.7740000000000000213      4.2039999999999997371
     3.8220000000000000639      3.0720000000000000639      2.4030000000000000249
     5.6619999999999999218      3.6629999999999998117      0.6019999999999999796
    11.1920000000000001705      1.1830000000000000515      1.1999999999999999556
    13.0320000000000000284      0.5909999999999999698      3.0009999999999998899
    12.6240000000000005542      2.4809999999999998721      4.8019999999999996021
    10.1669999999999998153      1.7740000000000000213      4.2039999999999997371
     8.7349999999999994316      3.0720000000000000639      2.4030000000000000249
    10.5749999999999992895      3.6629999999999998117      0.6019999999999999796
    -1.0909999999999999698      5.4379999999999997229      1.1999999999999999556
     0.7489999999999999991      4.8460000000000000853      3.0009999999999998899
     0.3410000000000000253      6.7359999999999997655      4.8019999999999996021
    -2.1160000000000001030      6.0289999999999999147      4.2039999999999997371
    -3.5480000000000000426      7.3269999999999999574      2.4030000000000000249
    -1.7079999999999999627      7.9180000000000001492      0.6019999999999999796
     3.8220000000000000639      5.4379999999999997229      1.1999999999999999556
     5.6619999999999999218      4.8460000000000000853      3.0009999999999998899
     5.2539999999999995595      6.7359999999999997655      4.8019999999999996021
     2.7970000000000001528      6.0289999999999999147      4.2039999999999997371
     1.3649999999999999911      7.3269999999999999574      2.4030000000000000249
     3.2050000000000000711      7.9180000000000001492      0.6019999999999999796
     8.7349999999999994316      5.4379999999999997229      1.1999999999999999556
    10.5749999999999992895      4.8460000000000000853      3.0009999999999998899
    10.1669999999999998153      6.7359999999999997655      4.8019999999999996021
     7.7099999999999999645      6.0289999999999999147      4.2039999999999997371
     6.2779999999999995808      7.3269999999999999574      2.4030000000000000249
     8.1180000000000003268      7.9180000000000001492      0.6019999999999999796
    -3.5470000000000001528      9.6929999999999996163      1.1999999999999999556
    -1.7070000000000000728      9.1010000000000008669      3.0009999999999998899
    -2.1150000000000002132     10.9909999999999996589      4.8019999999999996021
    -4.5720000000000000639     10.2840000000000006963      4.2039999999999997371
    -6.0039999999999995595     11.5820000000000007390      2.4030000000000000249
    -4.1639999999999997016     12.1730000000000000426      0.6019999999999999796
     1.3660000000000001030      9.6929999999999996163      1.1999999999999999556
     3.2059999999999999609      9.1010000000000008669      3.0009999999999998899
     2.7980000000000000426     10.9909999999999996589      4.8019999999999996021
     0.3410000000000000253     10.2840000000000006963      4.2039999999999997371
    -1.0909999999999999698     11.5820000000000007390      2.4030000000000000249
     0.7489999999999999991     12.1730000000000000426      0.6019999999999999796
     6.2789999999999999147      9.6929999999999996163      1.1999999999999999556
     8.1189999999999997726      9.1010000000000008669      3.0009999999999998899
     7.7110000000000002984     10.9909999999999996589      4.8019999999999996021
     5.2539999999999995595     10.2840000000000006963      4.2039999999999997371
     3.8220000000000000639     11.5820000000000007390      2.4030000000000000249
     5.6619999999999999218     12.1730000000000000426      0.6019999999999999796
     1.3660000000000001030      1.1830000000000000515      6.6040000000000000924
     3.2059999999999999609      0.5909999999999999698      8.4049999999999993605
     2.7980000000000000426      2.4809999999999998721     10.2059999999999995168
     0.3410000000000000253      1.7740000000000000213      9.6080000000000005400
    -1.0909999999999999698      3.0720000000000000639      7.8070000000000003837
     0.7489999999999999991      3.6629999999999998117      6.0060000000000002274
     6.2789999999999999147      1.1830000000000000515      6.6040000000000000924
     8.1189999999999997726      0.5909999999999999698      8.4049999999999993605
     7.7110000000000002984      2.4809999999999998721     10.2059999999999995168
     5.2539999999999995595      1.7740000000000000213      9.6080000000000005400
     3.8220000000000000639      3.0720000000000000639      7.8070000000000003837
     5.6619999999999999218      3.6629999999999998117      6.0060000000000002274
    11.1920000000000001705      1.1830000000000000515      6.6040000000000000924
    13.0320000000000000284      0.5909999999999999698      8.4049999999999993605
    12.6240000000000005542      2.4809999999999998721     10.2059999999999995168
    10.1669999999999998153      1.7740000000000000213      9.6080000000000005400
     8.7349999999999994316      3.0720000000000000639      7.8070000000000003837
    10.5749999999999992895      3.6629999999999998117      6.0060000000000002274
    -1.0909999999999999698      5.4379999999999997229      6.6040000000000000924
     0.7489999999999999991      4.8460000000000000853      8.4049999999999993605
     0.3410000000000000253      6.7359999999999997655     10.2059999999999995168
    -2.1160000000000001030      6.0289999999999999147      9.6080000000000005400
    -3.5480000000000000426      7.3269999999999999574      7.8070000000000003837
    -1.7079999999999999627      7.9180000000000001492      6.0060000000000002274
     3.8220000000000000639      5.4379999999999997229      6.6040000000000000924
     5.6619999999999999218      4.8460000000000000853      8.4049999999999993605
     5.2539999999999995595      6.7359999999999997655     10.2059999999999995168
     2.7970000000000001528      6.0289999999999999147      9.6080000000000005400
     1.3649999999999999911      7.3269999999999999574      7.8070000000000003837
     3.2050000000000000711      7.9180000000000001492      6.0060000000000002274
     8.7349999999999994316      5.4379999999999997229      6.6040000000000000924
    10.5749999999999992895      4.8460000000000000853      8.4049999999999993605
    10.1669999999999998153      6.7359999999999997655     10.2059999999999995168
     7.7099999999999999645      6.0289999999999999147      9.6080000000000005400
     6.2779999999999995808      7.3269999999999999574      7.8070000000000003837
     8.1180000000000003268      7.9180000000000001492      6.0060000000000002274
    -3.5470000000000001528      9.6929999999999996163      6.6040000000000000924
    -1.7070000000000000728      9.1010000000000008669      8.4049999999999993605
    -2.1150000000000002132     10.9909999999999996589     10.2059999999999995168
    -4.5720000000000000639     10.2840000000000006963      9.6080000000000005400
    -6.0039999999999995595     11.5820000000000007390      7.8070000000000003837
    -4.1639999999999997016     12.1730000000000000426      6.0060000000000002274
     1.3660000000000001030      9.6929999999999996163      6.6040000000000000924
     3.2059999999999999609      9.1010000000000008669      8.4049999999999993605
     2.7980000000000000426     10.9909999999999996589     10.2059999999999995168
     0.3410000000000000253     10.2840000000000006963      9.6080000000000005400
    -1.0909999999999999698     11.5820000000000007390      7.8070000000000003837
     0.7489999999999999991     12.1730000000000000426      6.0060000000000002274
     6.2789999999999999147      9.6929999999999996163      6.6040000000000000924
     8.1189999999999997726      9.1010000000000008669      8.4049999999999993605
     7.7110000000000002984     10.9909999999999996589     10.2059999999999995168
     5.2539999999999995595     10.2840000000000006963      9.6080000000000005400
     3.8220000000000000639     11.5820000000000007390      7.8070000000000003837
     5.6619999999999999218     12.1730000000000000426      6.0060000000000002274
     1.3660000000000001030      1.1830000000000000515     12.0079999999999991189
     3.2059999999999999609      0.5909999999999999698     13.8089999999999992752
     2.7980000000000000426      2.4809999999999998721     15.6099999999999994316
     0.3410000000000000253      1.7740000000000000213     15.0120000000000004547
    -1.0909999999999999698      3.0720000000000000639     13.2110000000000002984
     0.7489999999999999991      3.6629999999999998117     11.4100000000000001421
     6.2789999999999999147      1.1830000000000000515     12.0079999999999991189
     8.1189999999999997726      0.5909999999999999698     13.8089999999999992752
     7.7110000000000002984      2.4809999999999998721     15.6099999999999994316
     5.2539999999999995595      1.7740000000000000213     15.0120000000000004547
     3.8220000000000000639      3.0720000000000000639     13.2110000000000002984
     5.6619999999999999218      3.6629999999999998117     11.4100000000000001421
    11.1920000000000001705      1.1830000000000000515     12.0079999999999991189
    13.0320000000000000284      0.5909999999999999698     13.8089999999999992752
    12.6240000000000005542      2.4809999999999998721     15.6099999999999994316
    10.1669999999999998153      1.7740000000000000213     15.0120000000000004547
     8.7349999999999994316      3.0720000000000000639     13.2110000000000002984
    10.5749999999999992895      3.6629999999999998117     11.4100000000000001421
    -1.0909999999999999698      5.4379999999999997229     12.0079999999999991189
     0.7489999999999999991      4.8460000000000000853     13.8089999999999992752
     0.3410000000000000253      6.7359999999999997655     15.6099999999999994316
    -2.1160000000000001030      6.0289999999999999147     15.0120000000000004547
    -3.5480000000000000426      7.3269999999999999574     13.2110000000000002984
    -1.7079999999999999627      7.9180000000000001492     11.4100000000000001421
     3.8220000000000000639      5.4379999999999997229     12.0079999999999991189
     5.6619999999999999218      4.8460000000000000853     13.8089999999999992752
     5.2539999999999995595      6.7359999999999997655     15.6099999999999994316
     2.7970000000000001528      6.0289999999999999147     15.0120000000000004547
     1.3649999999999999911      7.3269999999999999574     13.2110000000000002984
     3.2050000000000000711      7.9180000000000001492     11.4100000000000001421
     8.7349999999999994316      5.4379999999999997229     12.0079999999999991189
    10.5749999999999992895      4.8460000000000000853     13.8089999999999992752
    10.1669999999999998153      6.7359999999999997655     15.6099999999999994316
     7.7099999999999999645      6.0289999999999999147     15.0120000000000004547
     6.2779999999999995808      7.3269999999999999574     13.2110000000000002984
     8.1180000000000003268      7.9180000000000001492     11.4100000000000001421
    -3.5470000000000001528      9.6929999999999996163     12.0079999999999991189
    -1.7070000000000000728      9.1010000000000008669     13.8089999999999992752
    -2.1150000000000002132     10.9909999999999996589     15.6099999999999994316
    -4.5720000000000000639     10.2840000000000006963     15.0120000000000004547
    -6.0039999999999995595     11.5820000000000007390     13.2110000000000002984
    -4.1639999999999997016     12.1730000000000000426     11.4100000000000001421
     1.3660000000000001030      9.6929999999999996163     12.0079999999999991189
     3.2059999999999999609      9.1010000000000008669     13.8089999999999992752
     2.7980000000000000426     10.9909999999999996589     15.6099999999999994316
     0.3410000000000000253     10.2840000000000006963     15.0120000000000004547
    -1.0909999999999999698     11.5820000000000007390     13.2110000000000002984
     0.7489999999999999991     12.1730000000000000426     11.4100000000000001421
     6.2789999999999999147      9.6929999999999996163     12.0079999999999991189
     8.1189999999999997726      9.1010000000000008669     13.8089999999999992752
     7.7110000000000002984     10.9909999999999996589     15.6099999999999994316
     5.2539999999999995595     10.2840000000000006963     15.0120000000000004547
     3.8220000000000000639     11.5820000000000007390     13.2110000000000002984
     5.6619999999999999218     12.1730000000000000426     11.4100000000000001421
